results/x-10M/X-n157-k13.vrp_seed-8.out
16876	19742
