results/x-10M/X-n157-k13.vrp_seed-8.vrp.sol
Route #1: 129 91 100 51 90 83 45 77 11 82 113 151
Route #2: 37 116 19 46 145 127 104 130 124 44 27 101
Route #3: 23 31 140 85 144 53 123 98 154 50 133 131
Route #4: 70 139 125 78 146 80 40 108 9 117 1 126
Route #5: 41 110 54 121 21 135 73 106 3 42 32 143
Route #6: 34 138 25 155 22 30 74 79 84 33 48 72
Route #7: 148 13 63 64 141 43 24 156 150 8 149 71
Route #8: 18 107 52 134 10 39 58 29 114 109 60 12
Route #9: 17 67 4 35 6 115 55 95 105 152 56 61
Route #10: 92 137 7 28 66 94 86 132 111 102 96 59
Route #11: 47 5 153 76 136 112 89 81 119 2 57 88
Route #12: 38 122 69 99 93 36 68 20 75 118 147 15
Route #13: 16 103 65 87 97 62 142 128 26 120 14 49
Cost 16876.000000